[2026-03-24T16:34:14.063Z] Pipeline "set_vm-3-t3_vm-3-t3_s000_g002" → 2026_03_24_16_34_14_set_vm-3-t3_vm-3-t3_s000_g002_max.sol
Set parameter Username
Set parameter LicenseID to value 2796068
Set parameter LogFile to value "gurobi.log"
Using license file /opt/gurobi/gurobi.lic
Academic license - for non-commercial use only - expires 2027-03-23

Gurobi Optimizer version 13.0.1 build v13.0.1rc0 (linux64 - "Ubuntu 24.04.4 LTS")
Copyright (c) 2026, Gurobi Optimization, LLC

Warning: Duplicate section found (read 'binary') - Is a variable name equal to an LP file format keyword?
Warning: Duplicate section found (read 'binary') - Is a variable name equal to an LP file format keyword?
Warning: Duplicate section found (read 'binary') - Is a variable name equal to an LP file format keyword?
Warning: Duplicate section found (read 'binary') - Is a variable name equal to an LP file format keyword?
Warning: Duplicate section found (read 'binary') - Is a variable name equal to an LP file format keyword?
Warning: Duplicate section found (read 'binary') - Is a variable name equal to an LP file format keyword?
Warning: Duplicate section found (read 'binary') - Is a variable name equal to an LP file format keyword?
Warning: Duplicate section found (read 'binary') - Is a variable name equal to an LP file format keyword?
Warning: Duplicate section found (read 'binary') - Is a variable name equal to an LP file format keyword?
Warning: Duplicate section found (read 'binary') - Is a variable name equal to an LP file format keyword?
Warning: Further warnings of this type will be omitted.
Read LP format model from file /root/bgw/data/uploads/2026_03_24_16_34_14_set_vm-3-t3_vm-3-t3_s000_g002_max.lp
Reading time = 0.00 seconds
: 1442 rows, 308 columns, 4383 nonzeros

Using Gurobi shared library /opt/gurobi1301/linux64/lib/libgurobi.so.13.0.1

CPU model: AMD EPYC-Genoa Processor, instruction set [SSE2|AVX|AVX2|AVX512]
Thread count: 16 physical cores, 16 logical processors, using up to 16 threads

Optimize a model with 1442 rows, 308 columns and 4383 nonzeros (Max)
Model fingerprint: 0xf621e51a
Model has 208 linear objective coefficients
Variable types: 218 continuous, 90 integer (90 binary)
Coefficient statistics:
  Matrix range     [1e+00, 1e+01]
  Objective range  [1e+00, 1e+00]
  Bounds range     [1e+00, 1e+00]
  RHS range        [1e+00, 1e+01]

Found heuristic solution: objective 208.0000000
Presolve removed 1118 rows and 216 columns
Presolve time: 0.00s
Presolved: 324 rows, 92 columns, 1042 nonzeros
Variable types: 0 continuous, 92 integer (82 binary)
Found heuristic solution: objective 473.0000000

Root relaxation: objective 1.595000e+03, 72 iterations, 0.00 seconds (0.00 work units)

    Nodes    |    Current Node    |     Objective Bounds      |     Work
 Expl Unexpl |  Obj  Depth IntInf | Incumbent    BestBd   Gap | It/Node Time

     0     0 1595.00000    0   44  473.00000 1595.00000   237%     -    0s
H    0     0                     505.0000000 1595.00000   216%     -    0s
H    0     0                     536.0000000 1595.00000   198%     -    0s
     0     0 1595.00000    0   55  536.00000 1595.00000   198%     -    0s
H    0     0                     567.0000000 1595.00000   181%     -    0s
     0     0 1595.00000    0   55  567.00000 1595.00000   181%     -    0s
     0     0 1595.00000    0   44  567.00000 1595.00000   181%     -    0s
H    0     0                     568.0000000 1595.00000   181%     -    0s
     0     0 1595.00000    0   52  568.00000 1595.00000   181%     -    0s
     0     0 1595.00000    0   44  568.00000 1595.00000   181%     -    0s
     0     0 1564.00000    0   55  568.00000 1564.00000   175%     -    0s
     0     0 1564.00000    0   44  568.00000 1564.00000   175%     -    0s
     0     0 1557.54167    0   54  568.00000 1557.54167   174%     -    0s
     0     0 1557.54167    0   54  568.00000 1557.54167   174%     -    0s
     0     0 1554.12500    0   54  568.00000 1554.12500   174%     -    0s
     0     0 1554.12500    0   44  568.00000 1554.12500   174%     -    0s
     0     2 1554.12500    0   44  568.00000 1554.12500   174%     -    0s
H   36    32                     599.0000000 1547.50000   158%  22.5    0s
 186686 19601 infeasible   53       599.00000  728.37500  21.6%   8.6    5s

Cutting planes:
  Gomory: 10
  Cover: 1
  Flow cover: 8
  GUB cover: 4
  Zero half: 2

Explored 252486 nodes (2057683 simplex iterations) in 6.19 seconds (5.94 work units)
Thread count was 16 (of 16 available processors)

Solution count 7: 599 568 567 ... 208

Optimal solution found (tolerance 1.00e-04)
Best objective 5.990000000000e+02, best bound 5.990000000000e+02, gap 0.0000%

Wrote result file '/root/bgw/data/results/2026_03_24_16_34_14_set_vm-3-t3_vm-3-t3_s000_g002_max.sol'

